
List of user-set options:

                                    Name   Value                used
                           compl_inf_tol = 1                     yes
                         constr_viol_tol = 1                     yes
                            dual_inf_tol = 1000                  yes
                           linear_solver = ma97                  yes
                              ma86_small = 1e-30                  no
                                  ma86_u = 0.0001                 no
                              ma97_order = best                  yes
                              ma97_small = 1e-30                 yes
                            ma97_switch1 = at_start              yes
                            ma97_switch2 = od_hd_reuse           yes
                                  ma97_u = 1e-06                 yes
                               ma97_umax = 0.5                   yes
                                max_iter = 2000                  yes
                    max_refinement_steps = 20                    yes
                    min_refinement_steps = 5                     yes
                                 mu_init = 1e-06                 yes
           mu_superlinear_decrease_power = 1.25                  yes
                   nlp_scaling_min_value = 1e-08                 yes
                        option_file_name = Preset_Case:_390_NCP.opt  yes
                             output_file = ./tmp/Preset_Case:_390_NCP.output  yes
                      print_user_options = yes                   yes
        required_infeasibility_reduction = 1                      no
                                     tol = 1e-08                 yes
                   warm_start_bound_frac = 1e-20                 yes
                   warm_start_bound_push = 1e-20                 yes
                   warm_start_init_point = yes                   yes
              warm_start_mult_bound_push = 1e-20                 yes
                warm_start_mult_init_max = 1e+40                 yes
             warm_start_slack_bound_frac = 1e-20                 yes
             warm_start_slack_bound_push = 1e-20                 yes

******************************************************************************
This program contains Ipopt, a library for large-scale nonlinear optimization.
 Ipopt is released as open source code under the Eclipse Public License (EPL).
         For more information visit http://projects.coin-or.org/Ipopt
******************************************************************************

This is Ipopt version 3.12.10, running with linear solver ma97.

Number of nonzeros in equality constraint Jacobian...:   117140
Number of nonzeros in inequality constraint Jacobian.:      213
Number of nonzeros in Lagrangian Hessian.............:    47462

Total number of variables............................:    29971
                     variables with only lower bounds:    11312
                variables with lower and upper bounds:    15132
                     variables with only upper bounds:        0
Total number of equality constraints.................:    29864
Total number of inequality constraints...............:       25
        inequality constraints with only lower bounds:        4
   inequality constraints with lower and upper bounds:        0
        inequality constraints with only upper bounds:       21

iter    objective    inf_pr   inf_du lg(mu)  ||d||  lg(rg) alpha_du alpha_pr  ls
   0 -3.9132453e-02 1.55e-01 6.61e+01  -6.0 0.00e+00    -  0.00e+00 0.00e+00   0
In iteration 0, 2 Slacks too small, adjusting variable bounds
   1 -3.9132453e-02 1.55e-01 6.53e+03  -6.0 6.16e+05  -2.0 6.48e-09 6.98e-16f  1
   2 -3.9132460e-02 1.55e-01 6.53e+03  -6.0 3.09e+03  -2.5 2.18e-05 1.89e-07f  1
   3 -3.9135013e-02 1.55e-01 6.53e+03  -6.0 3.09e+03  -3.0 2.58e-06 7.39e-05f  1
   4 -3.9136503e-02 1.55e-01 6.53e+03  -6.0 3.08e+03  -2.5 2.02e-05 4.01e-05f  1
   5 -3.9142053e-02 1.55e-01 6.53e+03  -6.0 3.07e+03  -3.0 1.38e-05 2.14e-04f  1
In iteration 5, 1 Slack too small, adjusting variable bound
   6 -3.9143912e-02 1.55e-01 6.53e+03  -6.0 3.05e+03  -2.6 4.74e-05 7.84e-05f  1
   7 -3.9144792e-02 1.55e-01 8.30e+03  -6.0 3.04e+03  -2.2 1.01e-05 3.99e-05h  1
   8 -3.9145190e-02 1.55e-01 8.37e+03  -6.0 3.03e+03  -2.6 3.92e-05 4.14e-05f  1
   9 -3.9147643e-02 1.55e-01 2.27e+04  -6.0 3.03e+03  -2.2 8.74e-06 1.65e-04f  1
iter    objective    inf_pr   inf_du lg(mu)  ||d||  lg(rg) alpha_du alpha_pr  ls
  10 -3.9147450e-02 1.55e-01 2.13e+04  -6.0 2.99e+03  -2.7 6.81e-05 2.00e-05f  1
  11 -3.9150318e-02 1.55e-01 5.60e+04  -6.0 3.00e+03  -2.3 3.57e-05 4.70e-04f  1
  12 -3.9147622e-02 1.55e-01 5.54e+04  -6.0 2.88e+03  -2.7 7.02e-05 4.72e-05f  1
  13 -3.9143546e-02 1.55e-01 6.22e+04  -6.0 2.91e+03  -2.3 7.46e-05 1.78e-04f  1
  14 -3.9104898e-02 1.54e-01 6.94e+04  -6.0 2.82e+03  -2.8 1.14e-04 5.20e-04h  1
  15 -3.9088758e-02 1.54e-01 2.29e+04  -6.0 2.76e+03  -2.4 1.29e-03 4.02e-04h  1
  16 -3.9078532e-02 1.54e-01 1.08e+04  -6.0 2.60e+03  -2.8 1.87e-03 1.20e-04h  1
  17 -3.8989824e-02 1.53e-01 3.57e+04  -6.0 2.65e+03  -2.4 1.20e-03 1.85e-03h  1
  18r-3.8989824e-02 1.53e-01 1.00e+03  -0.8 0.00e+00  -2.9 0.00e+00 2.94e-09R  2
  19r-3.9002348e-02 1.53e-01 1.54e+03  -0.8 3.57e+04    -  2.58e-07 7.82e-08f  1
iter    objective    inf_pr   inf_du lg(mu)  ||d||  lg(rg) alpha_du alpha_pr  ls
  20r-3.9002348e-02 1.53e-01 9.99e+02  -0.8 0.00e+00    -  0.00e+00 1.62e-08R  2
  21r-3.9003777e-02 1.53e-01 1.08e+03  -0.8 1.02e+04    -  1.62e-06 1.56e-07f  1
  22 -3.9004032e-02 1.53e-01 1.13e+06  -6.0 4.00e+02    -  1.63e-02 2.42e-05h  1
  23 -3.9004845e-02 1.53e-01 6.68e+05  -6.0 2.21e+03    -  2.59e-05 1.54e-05h  1
  24 -3.9048600e-02 1.53e-01 6.66e+05  -6.0 2.23e+03    -  3.04e-05 8.34e-04h  1
  25 -3.9051321e-02 1.53e-01 6.66e+05  -6.0 2.33e+03    -  4.94e-04 8.87e-05h  1
  26 -3.9124954e-02 1.54e-01 6.65e+05  -6.0 2.25e+03    -  2.77e-07 1.10e-03f  1
  27 -3.9197151e-02 1.54e-01 6.64e+05  -6.0 2.09e+03    -  2.58e-03 1.25e-03f  1
  28 -3.9337930e-02 1.53e-01 6.62e+05  -6.0 1.98e+03    -  3.69e-03 2.83e-03h  1
  29 -3.9339394e-02 1.53e-01 6.62e+05  -6.0 1.91e+03    -  6.50e-03 2.61e-05h  1
iter    objective    inf_pr   inf_du lg(mu)  ||d||  lg(rg) alpha_du alpha_pr  ls
  30 -3.9998186e-02 1.52e-01 6.55e+05  -6.0 1.92e+03    -  1.26e-02 1.19e-02f  1
  31 -4.0435292e-02 2.72e-01 6.44e+05  -6.0 1.36e+03    -  2.61e-03 1.53e-02h  1
  32 -4.0970633e-02 6.95e-01 6.22e+05  -6.0 1.02e+03    -  5.30e-02 3.44e-02f  1
  33 -4.1381349e-02 9.76e-01 5.91e+05  -6.0 6.83e+02    -  1.12e-01 4.99e-02h  1
  34 -4.1771308e-02 1.05e+00 5.62e+05  -6.0 6.61e+02    -  2.02e-01 4.86e-02h  1
  35 -4.2426607e-02 1.16e+00 5.06e+05  -6.0 6.16e+02    -  3.07e-07 1.01e-01f  1
  36 -4.2086867e-02 1.14e+00 4.98e+05  -6.0 4.24e+02    -  1.84e-03 1.40e-02h  3
  37 -4.2085076e-02 1.14e+00 4.98e+05  -6.0 3.94e+02    -  1.88e-02 7.76e-05h  7
  38 -4.1774802e-02 1.13e+00 4.92e+05  -6.0 4.45e+02    -  1.26e-02 1.26e-02s 16
  39 -4.0439513e-02 1.08e+00 4.63e+05  -6.0 4.03e+02    -  5.95e-02 5.95e-02s 16
iter    objective    inf_pr   inf_du lg(mu)  ||d||  lg(rg) alpha_du alpha_pr  ls
  40 -4.0344447e-02 1.07e+00 4.60e+05  -6.0 3.16e+02    -  5.29e-03 5.29e-03s 16
  41r-4.0344447e-02 1.07e+00 1.00e+03  -0.4 0.00e+00    -  0.00e+00 0.00e+00R  1
  42r-4.0332204e-02 1.07e+00 2.05e+03  -0.4 4.98e+03    -  4.93e-07 9.29e-07f  1
  43 -4.0332220e-02 1.07e+00 1.48e+07  -6.0 2.30e+02    -  2.79e-01 1.08e-05h  1
  44 -4.0331915e-02 1.07e+00 5.73e+08  -6.0 5.93e+02    -  1.28e-05 4.96e-04h  1
  45 -4.0326306e-02 1.06e+00 5.70e+08  -6.0 7.30e+02    -  1.16e-03 5.23e-03h  2
  46 -4.0325475e-02 1.06e+00 5.70e+08  -6.0 7.32e+02    -  3.02e-04 1.31e-03h  1
  47 -4.0352221e-02 1.03e+00 5.45e+08  -6.0 2.14e+02    -  2.40e-03 4.33e-02h  1
  48 -4.0347328e-02 1.01e+00 5.31e+08  -6.0 1.95e+02    -  4.80e-02 2.56e-02h  4
  49 -4.0341977e-02 9.99e-01 5.27e+08  -6.0 1.84e+02    -  4.35e-02 7.88e-03h  6
iter    objective    inf_pr   inf_du lg(mu)  ||d||  lg(rg) alpha_du alpha_pr  ls
  50 -4.0341752e-02 9.99e-01 5.27e+08  -6.0 1.80e+02    -  5.92e-03 2.66e-04h 11
  51 -4.0341639e-02 9.99e-01 5.27e+08  -6.0 1.80e+02    -  5.60e-03 1.33e-04h 12
  52 -4.0340717e-02 9.98e-01 5.26e+08  -6.0 1.80e+02    -  1.41e-04 1.07e-03h  4
  53 -4.0340657e-02 9.98e-01 5.26e+08  -6.0 1.78e+02    -  1.07e-05 6.70e-05h  1
  54 -4.0322887e-02 9.79e-01 5.15e+08  -6.0 1.79e+02    -  1.18e-01 2.02e-02h  1
  55  7.9159861e-02 9.34e-01 4.83e+08  -6.0 1.66e+02    -  6.69e-08 6.31e-02h  1
  56 -4.0154945e-02 9.04e-01 4.65e+08  -6.0 1.58e+02    -  2.99e-01 3.74e-02h  1
  57  8.1685798e-03 8.30e-01 3.94e+08  -6.0 1.36e+02    -  3.21e-01 1.51e-01h  2
  58 -1.8851948e-02 7.18e-01 2.84e+08  -6.0 1.13e+02    -  3.84e-01 2.81e-01h  1
  59 -1.8852181e-02 7.18e-01 2.84e+08  -6.0 7.63e+01    -  4.33e-01 1.13e-05h  1
iter    objective    inf_pr   inf_du lg(mu)  ||d||  lg(rg) alpha_du alpha_pr  ls
  60 -2.2613167e-02 5.85e-01 2.22e+08  -6.0 9.04e+01    -  4.67e-01 2.17e-01h  1
  61 -3.5677713e-02 6.27e-01 7.29e+07  -6.0 1.28e+02    -  3.73e-01 6.72e-01H  1
  62 -4.0352958e-02 7.59e-01 3.74e+07  -6.0 1.79e+02    -  6.25e-01 4.86e-01h  2
  63 -5.0006760e-02 8.97e-01 1.25e+07  -6.0 1.79e+02    -  2.79e-01 6.67e-01H  1
  64 -5.1231882e-02 1.12e+01 1.01e+08  -6.0 3.55e+02    -  3.92e-05 4.58e-01h  1
  65 -5.0924195e-02 1.11e+01 9.99e+07  -6.0 9.28e+02    -  2.29e-02 7.92e-03h  2
  66 -5.1015086e-02 1.04e+01 1.08e+08  -6.0 9.46e+02    -  2.85e-02 6.46e-02h  1
  67 -5.4413500e-02 6.91e+00 8.06e+07  -6.0 1.48e+02    -  4.64e-03 8.06e-01h  1
  68 -5.4825126e-02 1.55e-01 7.34e+05  -6.0 1.05e+01    -  6.08e-01 1.00e+00h  1
  69 -5.5368368e-02 5.39e-03 3.01e+03  -6.0 7.26e+00    -  7.61e-01 1.00e+00h  1
iter    objective    inf_pr   inf_du lg(mu)  ||d||  lg(rg) alpha_du alpha_pr  ls
  70 -5.8268578e-02 6.25e+00 1.16e+03  -6.0 4.26e+01    -  2.78e-01 9.35e-01h  1
  71 -5.8954464e-02 1.09e-01 3.10e+02  -6.0 5.72e+01    -  1.27e-03 1.00e+00h  1
  72 -5.9575073e-02 2.04e-01 1.32e+03  -6.0 5.43e+01    -  2.94e-01 5.82e-01h  1
  73 -5.9714671e-02 1.99e-01 1.61e+02  -6.0 8.18e+01    -  2.66e-01 8.03e-02h  1
  74 -6.1572072e-02 1.53e+00 2.46e+06  -6.0 7.96e+01    -  2.25e-03 1.00e+00f  1
  75 -6.1923773e-02 1.52e+00 2.18e+06  -6.0 1.71e+02    -  3.55e-01 1.11e-01h  1
  76 -6.4971351e-02 7.82e+00 2.55e+05  -6.0 1.64e+02    -  4.90e-01 8.81e-01h  1
  77 -6.6459600e-02 6.36e+00 1.94e+05  -6.0 2.87e+02    -  1.84e-03 2.41e-01h  1
  78 -6.7754486e-02 4.65e+00 1.41e+05  -6.0 1.58e+02    -  2.32e-02 2.73e-01h  1
  79 -6.8659015e-02 4.52e+00 1.37e+05  -6.0 5.69e+02    -  4.34e-06 2.96e-02f  1
iter    objective    inf_pr   inf_du lg(mu)  ||d||  lg(rg) alpha_du alpha_pr  ls
  80 -7.3217503e-02 3.72e+00 1.09e+05  -6.0 3.46e+02    -  1.78e-01 2.04e-01h  1
  81 -8.1911010e-02 4.12e+00 8.76e+04  -6.0 6.21e+02    -  1.96e-04 1.95e-01h  1
  82 -8.3143773e-02 3.96e+00 8.42e+04  -6.0 1.11e+03    -  2.88e-01 3.81e-02h  1
  83 -8.6826233e-02 3.90e+00 8.30e+04  -6.0 1.37e+04    -  3.92e-02 1.44e-02h  1
  84 -8.9399156e-02 3.39e+00 6.29e+04  -6.0 6.74e+02    -  3.65e-01 2.43e-01h  1
  85 -9.2519697e-02 2.77e+00 5.18e+04  -6.0 1.17e+03    -  6.14e-02 1.77e-01h  1
  86 -9.3805070e-02 2.54e+00 4.76e+04  -6.0 1.22e+03    -  4.03e-01 8.05e-02h  1
  87 -9.3808081e-02 2.54e+00 4.75e+04  -6.0 3.83e+01  -3.4 8.58e-04 1.20e-03h  1
  88 -9.3811098e-02 2.51e+00 9.02e+04  -6.0 2.00e+01  -3.8 2.86e-04 9.96e-03h  1
  89 -9.3785429e-02 2.44e+00 8.75e+04  -6.0 1.34e+01  -4.3 1.20e-02 2.95e-02h  1
iter    objective    inf_pr   inf_du lg(mu)  ||d||  lg(rg) alpha_du alpha_pr  ls
  90 -9.3670671e-02 2.10e+00 7.50e+04  -6.0 9.51e+00  -4.8 2.06e-02 1.43e-01h  1
  91 -9.3148225e-02 2.94e-01 1.83e+03  -6.0 9.43e+00  -5.3 1.50e-01 1.00e+00h  1
  92 -9.4004145e-02 3.00e-01 1.73e+03  -6.0 1.89e+03    -  1.72e-01 5.51e-02h  1
  93 -9.6679811e-02 2.89e+00 1.44e+03  -6.0 2.59e+03    -  1.75e-01 1.62e-01h  1
  94 -9.6755090e-02 2.45e+00 1.22e+03  -6.0 7.90e+00  -5.7 8.44e-01 1.52e-01h  1
  95 -9.7099342e-02 1.26e+00 7.63e+02  -6.0 1.16e+01  -6.2 1.00e+00 4.84e-01h  1
  96 -9.8048985e-02 5.28e-02 5.43e+02  -6.0 2.17e+01  -6.7 7.05e-01 1.00e+00h  1
  97 -9.8302799e-02 4.06e-02 5.44e+03  -6.0 5.60e+01  -7.2 9.84e-01 2.68e-01h  1
  98 -9.8488483e-02 3.79e-02 6.01e+03  -6.0 1.62e+02  -7.7 3.45e-01 1.01e-01h  1
  99 -1.0073326e-01 1.41e+00 4.12e+03  -6.0 4.70e+02  -8.1 1.00e+00 6.27e-01h  1
iter    objective    inf_pr   inf_du lg(mu)  ||d||  lg(rg) alpha_du alpha_pr  ls
 100 -1.0100491e-01 1.37e+00 1.97e+03  -6.0 9.31e+02  -8.6 1.16e-01 4.25e-02h  1
 101 -1.0277575e-01 2.14e+00 2.10e+05  -6.0 2.34e+03  -9.1 6.47e-03 1.01e-01h  1
Error in an AMPL evaluation. Run with "halt_on_ampl_error yes" to see details.
Warning: Cutting back alpha due to evaluation error
 102 -1.0449816e-01 3.05e+00 2.08e+05  -6.0 3.59e+04  -9.6 8.47e-03 1.01e-02h  2
 103 -1.0642504e-01 3.69e+00 1.83e+05  -6.0 2.03e+03  -9.1 9.40e-02 1.22e-01h  1
 104 -1.0682663e-01 3.51e+00 1.67e+05  -6.0 1.24e+03  -8.7 1.60e-01 8.41e-02h  1
 105 -1.0785540e-01 2.82e+00 1.14e+05  -6.0 5.89e+02  -8.3 7.04e-04 3.19e-01h  1
 106 -1.1029128e-01 2.90e+00 7.21e+04  -6.0 7.10e+02  -8.8 3.94e-01 3.67e-01h  1
 107 -1.1065086e-01 2.84e+00 6.97e+04  -6.0 2.81e+03  -9.2 2.49e-01 3.42e-02h  1
 108 -1.1415873e-01 4.75e+00 2.31e+04  -6.0 7.03e+02  -8.8 9.99e-01 6.67e-01h  1
 109 -1.1460600e-01 3.27e+00 1.54e+04  -6.0 2.19e+02  -8.4 8.42e-01 3.32e-01h  1
iter    objective    inf_pr   inf_du lg(mu)  ||d||  lg(rg) alpha_du alpha_pr  ls
 110 -1.1473858e-01 3.09e+00 1.46e+04  -6.0 6.61e+02  -8.9 6.32e-01 5.60e-02h  1
 111 -1.1500562e-01 1.87e+00 8.79e+03  -6.0 3.09e+02  -8.4 1.00e+00 3.97e-01h  1
 112 -1.1539723e-01 1.70e+00 6.81e+03  -6.0 6.82e+02  -8.9 1.80e-01 2.25e-01h  1
 113 -1.1540193e-01 1.85e+00 2.06e+03  -6.0 2.25e+02  -8.5 5.58e-01 6.97e-01h  1
 114 -1.1615301e-01 4.67e-01 2.06e+02  -6.0 2.62e+02  -9.0 5.91e-01 1.00e+00h  1
 115 -1.1645079e-01 4.47e-01 1.19e+02  -6.0 3.41e+02  -8.5 3.12e-01 2.74e-01h  1
 116 -1.1727783e-01 1.28e+00 5.52e+02  -6.0 4.34e+02  -9.0 1.00e+00 8.04e-01h  1
 117 -1.1753884e-01 1.15e+00 3.19e+03  -6.0 2.15e+03  -9.5 4.70e-01 1.15e-01h  1
 118 -1.1851685e-01 1.35e+00 4.92e+02  -6.0 6.01e+02  -9.1 3.28e-01 6.47e-01h  1
 119 -1.1888900e-01 1.84e+00 1.04e+03  -6.0 1.16e+04  -9.5 9.45e-02 3.38e-02h  1
iter    objective    inf_pr   inf_du lg(mu)  ||d||  lg(rg) alpha_du alpha_pr  ls
 120 -1.1934173e-01 2.03e+00 1.51e+03  -6.0 1.71e+03  -9.1 1.61e-01 1.28e-01h  1
 121 -1.2121347e-01 7.90e+00 1.38e+04  -6.0 5.68e+02  -8.7 1.48e-02 8.95e-01h  1
 122 -1.2122519e-01 7.66e+00 4.00e+04  -6.0 3.06e+02  -6.5 6.55e-03 3.10e-02h  1
 123 -1.2144046e-01 4.82e+00 7.18e+03  -6.0 1.48e+01  -6.0 4.54e-02 7.59e-01h  1
 124 -1.2143603e-01 4.35e+00 6.32e+03  -6.0 2.93e+01  -5.6 9.31e-03 1.22e-01h  1
 125 -1.2152163e-01 3.20e+00 4.64e+03  -6.0 1.28e+01  -6.1 3.91e-01 2.64e-01h  1
 126 -1.2160460e-01 2.86e+00 4.13e+03  -6.0 2.93e+01  -6.6 4.02e-01 1.06e-01h  1
 127 -1.2184290e-01 3.97e+00 3.36e+03  -6.0 4.99e+01  -7.0 3.07e-01 1.85e-01h  1
 128 -1.2212312e-01 8.88e+00 2.80e+03  -6.0 6.72e+01  -7.5 6.10e-01 1.67e-01h  1
 129 -1.2219587e-01 5.95e+00 1.87e+03  -6.0 5.98e+01  -8.0 6.69e-01 3.33e-01h  1
iter    objective    inf_pr   inf_du lg(mu)  ||d||  lg(rg) alpha_du alpha_pr  ls
 130 -1.2273966e-01 2.08e+00 5.48e+02  -6.0 1.57e+02  -8.5 8.71e-01 7.06e-01h  1
 131 -1.2337855e-01 5.15e-01 5.81e+01  -6.0 3.26e+02  -9.0 3.49e-01 1.00e+00h  1
 132 -1.2349333e-01 1.34e-01 1.20e+01  -6.0 4.39e+01  -7.6 1.00e+00 7.57e-01h  1
 133 -1.2378300e-01 2.07e-01 4.88e+00  -6.0 1.28e+02  -8.1 6.11e-01 5.89e-01h  1
 134 -1.2389984e-01 1.80e-01 3.35e+00  -6.0 3.15e+02  -8.6 2.40e-01 2.13e-01h  1
 135 -1.2407726e-01 1.86e-01 6.52e+01  -6.0 4.53e+02  -9.1 8.93e-01 2.55e-01h  1
 136 -1.2545497e-01 4.15e+00 5.32e+01  -6.0 1.13e+03  -9.5 5.37e-01 1.00e+00h  1
 137 -1.2552493e-01 4.09e+00 5.23e+01  -6.0 1.59e+05    -  9.42e-03 3.64e-03h  1
 138 -1.2666091e-01 2.31e+01 9.87e+01  -6.0 3.15e+04    -  1.09e-02 9.04e-02h  1
 139 -1.2666376e-01 1.87e+01 5.65e+01  -6.0 4.53e+03    -  1.34e-02 1.91e-01h  1
iter    objective    inf_pr   inf_du lg(mu)  ||d||  lg(rg) alpha_du alpha_pr  ls
 140 -1.2679617e-01 1.19e+01 3.64e+01  -6.0 2.86e+02  -8.2 3.67e-01 3.60e-01h  1
 141 -1.2697880e-01 3.83e+00 2.01e+02  -6.0 1.45e+02  -7.8 1.19e-01 6.80e-01h  1
 142 -1.2715522e-01 5.40e+00 1.32e+02  -6.0 2.29e+02  -8.3 3.49e-02 3.78e-01h  1
 143 -1.2742702e-01 2.15e+01 6.22e+02  -6.0 1.48e+02  -7.8 2.02e-01 6.30e-01h  1
 144 -1.2751562e-01 2.29e+01 6.40e+02  -6.0 1.02e+03  -8.3 9.35e-02 2.57e-02h  1
 145 -1.2758566e-01 2.21e+01 6.81e+02  -6.0 1.32e+03  -8.8 7.91e-02 3.80e-02h  1
 146 -1.2775068e-01 1.64e+01 6.81e+03  -6.0 1.42e+02  -7.5 1.18e-02 4.48e-01h  1
 147 -1.2779749e-01 5.96e+00 2.16e+01  -6.0 9.78e+00  -7.0 9.54e-01 1.00e+00h  1
 148 -1.2793793e-01 1.12e+00 3.48e+01  -6.0 4.22e+01  -7.5 8.67e-01 1.00e+00h  1
 149 -1.2793882e-01 1.12e+00 3.40e+01  -6.0 4.06e+02  -8.0 2.71e-02 1.03e-03h  1
iter    objective    inf_pr   inf_du lg(mu)  ||d||  lg(rg) alpha_du alpha_pr  ls
 150 -1.2835242e-01 7.99e-01 9.75e+00  -6.0 3.61e+02  -8.5 4.34e-01 4.72e-01f  1
 151 -1.2859170e-01 5.85e-01 2.70e+03  -6.0 2.23e+02  -8.9 4.39e-01 3.31e-01h  1
 152 -1.2873932e-01 5.91e-01 7.89e+03  -6.0 5.44e+02  -9.4 2.59e-01 1.38e-01h  1
 153 -1.2885905e-01 9.60e-01 1.22e+05  -6.0 3.37e+02  -9.9 4.40e-02 2.64e-01h  1
 154 -1.2902246e-01 1.61e+00 7.55e+04  -6.0 7.65e+02 -10.4 3.69e-01 3.80e-01h  1
 155 -1.2909388e-01 2.42e+00 7.07e+04  -6.0 3.65e+03 -10.8 1.70e-01 6.23e-02h  1
 156 -1.2909914e-01 2.38e+00 6.86e+04  -6.0 2.66e+03 -11.3 7.17e-01 3.03e-02h  1
 157 -1.2898419e-01 2.70e+00 6.16e+04  -6.0 2.09e+04 -11.8 7.68e-02 1.02e-01h  1
 158 -1.2912269e-01 4.38e+00 4.32e+04  -6.0 2.89e+03    -  9.75e-01 2.99e-01h  1
 159 -1.2920243e-01 4.48e+00 2.79e+04  -6.0 1.34e+03    -  4.87e-01 3.55e-01h  1
iter    objective    inf_pr   inf_du lg(mu)  ||d||  lg(rg) alpha_du alpha_pr  ls
 160 -1.2928377e-01 2.56e+00 1.59e+04  -6.0 2.92e+02  -9.6 2.42e-02 4.32e-01h  1
 161 -1.2932181e-01 1.54e+00 9.10e+03  -6.0 5.01e+02 -10.0 4.94e-01 4.28e-01h  1
 162 -1.2938287e-01 6.70e-01 2.47e+03  -6.0 1.53e+02  -9.6 5.80e-01 7.34e-01h  1
 163 -1.2944784e-01 1.65e+00 2.13e+01  -6.0 2.63e+02 -10.1 8.63e-01 1.00e+00h  1
 164 -1.2948582e-01 3.99e+00 5.30e+01  -6.0 1.33e+03 -10.6 1.90e-01 3.56e-01h  1
 165 -1.2952488e-01 3.94e+00 1.07e+02  -6.0 1.05e+03    -  5.70e-01 7.79e-01h  1
 166 -1.2958349e-01 2.78e+00 3.06e+02  -6.0 4.79e+02    -  1.22e-01 3.48e-01h  1
 167 -1.2976345e-01 3.30e+01 5.09e+02  -6.0 6.40e+02    -  4.01e-01 6.42e-01h  1
 168 -1.2978924e-01 3.32e+01 5.50e+02  -6.0 5.21e+03 -11.0 1.03e-03 1.45e-02h  2
 169 -1.2975059e-01 2.60e+01 3.76e+02  -6.0 3.32e+02  -9.7 2.38e-01 2.20e-01h  1
iter    objective    inf_pr   inf_du lg(mu)  ||d||  lg(rg) alpha_du alpha_pr  ls
 170 -1.2976576e-01 2.20e+01 1.77e+03  -6.0 2.43e+03    -  7.07e-01 1.54e-01h  1
 171 -1.2979080e-01 1.72e+01 1.03e+03  -6.0 7.79e+02    -  7.67e-02 2.22e-01h  1
 172 -1.2985684e-01 9.52e+00 1.68e+02  -6.0 8.10e+02    -  9.22e-01 8.98e-01h  1
 173 -1.2986048e-01 9.56e+00 3.71e+03  -6.0 5.60e+03 -10.2 2.54e-01 2.19e-02h  2
 174 -1.2985878e-01 1.30e+01 2.69e+03  -6.0 1.08e+03    -  8.65e-01 7.31e-01h  1
 175 -1.2987280e-01 1.23e+01 6.92e+05  -6.0 1.87e+03    -  4.91e-03 1.46e-01h  1
 176 -1.2987873e-01 9.95e+00 5.48e+05  -6.0 5.91e+02    -  1.80e-01 2.08e-01h  1
 177 -1.2976998e-01 3.12e+01 1.08e+03  -6.0 1.41e+03    -  2.56e-01 1.00e+00h  1
 178 -1.2981392e-01 1.95e+01 6.96e+02  -6.0 4.14e+02    -  7.88e-01 3.76e-01h  1
 179 -1.2979841e-01 1.22e+01 4.35e+02  -6.0 3.67e+02    -  1.00e+00 3.85e-01h  1
iter    objective    inf_pr   inf_du lg(mu)  ||d||  lg(rg) alpha_du alpha_pr  ls
 180 -1.2977607e-01 1.61e+00 5.89e+00  -6.0 3.16e+02    -  7.49e-01 1.00e+00h  1
 181 -1.2972992e-01 1.22e+00 8.34e+00  -6.0 6.17e+02    -  3.36e-01 3.01e-01h  1
 182 -1.2969097e-01 1.04e+00 7.84e+00  -6.0 2.49e+02    -  1.00e+00 6.12e-01h  1
 183 -1.2966552e-01 9.40e-01 1.81e+01  -6.0 9.75e+02    -  2.32e-03 1.17e-01H  1
 184 -1.2961567e-01 1.49e+00 3.03e+01  -6.0 2.48e+02    -  5.17e-01 1.00e+00h  1
 185 -1.2960463e-01 1.37e+00 1.91e+02  -6.0 4.40e+02    -  7.98e-01 1.62e-01h  1
 186 -1.2954343e-01 2.15e+00 6.31e+01  -6.0 3.00e+02    -  6.44e-01 1.00e+00h  1
 187 -1.2954336e-01 1.65e+00 7.63e+02  -6.0 2.93e+02    -  1.00e+00 3.35e-01h  1
 188 -1.2952693e-01 1.80e+00 4.00e+02  -6.0 2.79e+02    -  5.80e-01 1.00e+00h  1
 189 -1.2952812e-01 1.42e+00 2.42e+03  -6.0 3.06e+02    -  1.00e+00 4.24e-01h  1
iter    objective    inf_pr   inf_du lg(mu)  ||d||  lg(rg) alpha_du alpha_pr  ls
 190 -1.2949945e-01 1.73e+00 1.17e+02  -6.0 3.59e+02    -  4.08e-01 6.49e-01h  1
 191 -1.2951629e-01 4.25e-02 1.04e+06  -6.0 6.82e+01    -  8.03e-03 1.00e+00h  1
 192 -1.2948584e-01 3.45e-02 4.15e+01  -6.0 5.56e+01    -  1.00e+00 1.00e+00h  1
 193 -1.2947970e-01 2.45e-02 2.49e+01  -6.0 6.71e+01    -  1.00e+00 2.92e-01h  2
 194 -1.2947358e-01 6.81e-03 2.17e-02  -6.0 1.71e+01    -  1.00e+00 1.00e+00h  1
 195 -1.2947610e-01 1.05e-03 3.61e-03  -6.0 6.83e+00    -  1.00e+00 1.00e+00h  1
 196 -1.2947589e-01 5.90e-06 1.62e-05  -6.0 4.80e-01    -  1.00e+00 1.00e+00h  1
 197 -1.2947588e-01 4.36e-10 5.77e-10  -6.0 2.89e-03    -  1.00e+00 1.00e+00h  1
 198 -1.3009073e-01 1.54e+01 3.37e+01  -7.5 4.47e+03    -  1.73e-01 2.53e-01f  1
 199 -1.3047741e-01 1.79e+01 6.17e+01  -7.5 4.17e+03    -  1.65e-01 2.85e-01h  1
iter    objective    inf_pr   inf_du lg(mu)  ||d||  lg(rg) alpha_du alpha_pr  ls
 200 -1.3058786e-01 1.63e+01 3.06e+01  -7.5 3.56e+03    -  3.91e-01 1.21e-01h  1
 201 -1.3071616e-01 1.50e+01 1.72e+01  -7.5 4.40e+03    -  9.45e-02 1.43e-01h  1
 202 -1.3097703e-01 1.46e+01 2.02e+01  -7.5 5.75e+03    -  2.12e-01 3.31e-01h  1
 203 -1.3116868e-01 8.78e+00 1.21e+01  -7.5 2.03e+03 -10.7 5.19e-01 4.64e-01h  1
 204 -1.3133334e-01 4.36e+00 1.75e+01  -7.5 1.28e+03 -10.2 3.41e-01 5.36e-01h  1
 205 -1.3138672e-01 3.41e+00 2.28e+01  -7.5 5.95e+02  -9.8 8.91e-02 2.19e-01h  1
 206 -1.3163028e-01 8.97e+00 2.39e+01  -7.5 3.50e+04 -10.3 2.11e-02 5.43e-02h  1
 207 -1.3166813e-01 8.29e+00 8.48e+00  -7.5 1.83e+02  -9.0 2.91e-01 7.55e-02h  1
 208 -1.3219436e-01 7.91e+00 2.00e+01  -7.5 9.01e+02  -9.4 2.48e-01 6.20e-01h  1
 209 -1.3227864e-01 6.79e+00 3.57e+01  -7.5 3.33e+02  -9.0 7.06e-01 1.46e-01h  1
iter    objective    inf_pr   inf_du lg(mu)  ||d||  lg(rg) alpha_du alpha_pr  ls
 210 -1.3275248e-01 8.38e+00 2.01e+01  -7.5 1.82e+03  -9.5 1.19e-01 2.42e-01h  1
 211 -1.3348188e-01 3.72e+00 2.03e+01  -7.5 4.79e+02  -9.1 1.00e+00 8.22e-01h  1
 212 -1.3481233e-01 1.58e+01 6.58e+01  -7.5 2.99e+03  -9.6 5.68e-04 2.63e-01h  1
 213 -1.3514104e-01 2.38e+01 1.23e+02  -7.5 5.77e+03    -  8.07e-02 2.51e-01h  1
 214 -1.3561241e-01 2.04e+01 2.22e+02  -7.5 1.02e+03  -9.1 5.37e-04 1.78e-01h  1
 215 -1.3643080e-01 2.25e+01 2.36e+02  -7.5 8.51e+03  -9.6 2.46e-02 4.19e-02h  1
 216 -1.3772344e-01 1.81e+01 2.34e+02  -7.5 7.69e+03    -  2.01e-01 2.54e-01h  1
 217 -1.3794732e-01 1.59e+01 3.64e+02  -7.5 2.01e+03    -  7.43e-05 1.24e-01h  1
 218 -1.3831524e-01 1.55e+01 4.49e+02  -7.5 2.37e+03    -  1.15e-02 8.17e-02h  1
 219 -1.3846067e-01 1.26e+01 3.03e+02  -7.5 1.39e+03    -  2.21e-01 1.84e-01h  1
iter    objective    inf_pr   inf_du lg(mu)  ||d||  lg(rg) alpha_du alpha_pr  ls
 220 -1.3888401e-01 5.92e+00 1.01e+03  -7.5 1.14e+03    -  1.18e-01 5.85e-01h  1
 221 -1.3890130e-01 5.51e+00 8.14e+02  -7.5 9.74e+02    -  4.69e-01 8.00e-02h  1
 222 -1.3897445e-01 5.10e+00 2.24e+02  -7.5 2.81e+03    -  8.73e-02 2.34e-01h  1
 223 -1.3897477e-01 5.09e+00 2.23e+02  -7.5 9.11e+03    -  7.21e-04 9.28e-04h  1
 224 -1.3898685e-01 4.79e+00 2.43e+03  -7.5 6.47e+02    -  5.37e-01 5.99e-02h  1
 225 -1.3902120e-01 3.96e+00 1.72e+03  -7.5 8.65e+02    -  6.97e-02 1.73e-01h  1
 226 -1.3904914e-01 3.39e+00 1.71e+03  -7.5 5.04e+02 -10.1 2.14e-01 1.45e-01h  1
 227 -1.3911840e-01 2.96e+00 1.37e+03  -7.5 1.40e+03 -10.6 4.15e-01 3.35e-01h  1
 228 -1.3914510e-01 4.29e+00 1.23e+03  -7.5 3.44e+03 -11.0 3.73e-01 1.06e-01h  1
 229 -1.3917980e-01 8.93e+00 1.12e+03  -7.5 5.20e+03    -  1.26e-01 1.23e-01h  1
iter    objective    inf_pr   inf_du lg(mu)  ||d||  lg(rg) alpha_du alpha_pr  ls
 230 -1.3918783e-01 8.34e+00 1.03e+03  -7.5 1.28e+03    -  7.84e-02 8.09e-02h  1
 231 -1.3919915e-01 8.21e+00 7.21e+02  -7.5 2.51e+03    -  7.06e-02 8.14e-02h  1
 232 -1.3920418e-01 7.91e+00 1.50e+03  -7.5 1.83e+03    -  9.76e-03 4.93e-02h  1
 233 -1.3925377e-01 1.29e+01 8.01e+02  -7.5 2.02e+03    -  3.93e-02 3.88e-01h  1
 234 -1.3927305e-01 1.24e+01 6.83e+02  -7.5 2.22e+03    -  3.41e-01 1.41e-01h  1
 235 -1.3929828e-01 1.25e+01 5.59e+02  -7.5 2.27e+03    -  6.79e-01 1.79e-01h  1
 236 -1.3942966e-01 7.51e+01 4.70e+02  -7.5 2.33e+03    -  1.05e-03 1.00e+00h  1
 237 -1.3947507e-01 5.77e+01 2.01e+02  -7.5 1.97e+03    -  2.06e-02 3.18e-01h  1
 238 -1.3948206e-01 5.63e+01 1.83e+02  -7.5 5.33e+03    -  2.33e-01 3.20e-02h  1
 239 -1.3961963e-01 4.75e+01 2.39e+02  -7.5 1.69e+03    -  4.27e-01 1.00e+00h  1
iter    objective    inf_pr   inf_du lg(mu)  ||d||  lg(rg) alpha_du alpha_pr  ls
 240 -1.3966145e-01 3.95e+01 4.83e+02  -7.5 1.96e+03    -  2.52e-02 2.83e-01h  1
 241 -1.3966958e-01 4.22e+01 4.83e+02  -7.5 7.45e+04    -  3.35e-03 5.48e-03h  1
 242 -1.3976710e-01 3.86e+01 5.15e+02  -7.5 1.68e+03    -  4.92e-01 7.11e-01h  1
 243 -1.3981232e-01 2.78e+01 1.71e+03  -7.5 1.18e+03    -  9.53e-03 3.87e-01h  1
 244 -1.3984634e-01 2.15e+01 1.17e+03  -7.5 1.06e+03    -  4.11e-01 3.05e-01h  1
 245 -1.3989653e-01 1.16e+01 6.40e+02  -7.5 4.79e+02    -  8.18e-01 5.21e-01h  1
 246 -1.3990449e-01 9.88e+00 2.83e+03  -7.5 4.28e+02    -  4.21e-01 1.50e-01h  1
 247 -1.3989636e-01 4.67e+00 3.61e+03  -7.5 1.21e+02    -  2.91e-03 5.33e-01h  1
 248 -1.3988752e-01 8.61e-02 1.20e+01  -7.5 5.30e+01    -  5.77e-01 1.00e+00h  1
 249 -1.3988516e-01 8.34e-04 2.97e-03  -7.5 5.74e+00    -  1.00e+00 1.00e+00h  1
iter    objective    inf_pr   inf_du lg(mu)  ||d||  lg(rg) alpha_du alpha_pr  ls
 250 -1.3988513e-01 8.58e-07 4.29e-05  -7.5 2.06e-01    -  1.00e+00 1.00e+00h  1
 251 -1.3988513e-01 6.11e-09 1.06e-07  -7.5 1.74e-02    -  1.00e+00 1.00e+00h  1
 252 -1.3988929e-01 1.93e-01 1.91e+00  -9.0 2.25e+02    -  3.70e-01 4.44e-01h  1
 253 -1.3989846e-01 4.67e+01 1.51e+02  -9.0 5.07e+04    -  4.82e-02 3.02e-02h  1
 254 -1.3989999e-01 4.70e+01 1.57e+02  -9.0 4.03e+04    -  2.30e-02 5.39e-03h  1
 255 -1.3991211e-01 5.13e+01 1.73e+02  -9.0 2.53e+03    -  2.10e-02 6.22e-01h  1
 256 -1.3991251e-01 5.09e+01 1.71e+02  -9.0 4.26e+03    -  4.18e-04 8.12e-03h  1
 257 -1.3991804e-01 4.04e+01 8.25e+01  -9.0 1.51e+03    -  1.49e-02 2.73e-01h  1
 258 -1.3991925e-01 3.95e+01 8.02e+01  -9.0 3.08e+03    -  1.57e-02 2.66e-02h  1
 259 -1.3992711e-01 3.26e+01 5.65e+01  -9.0 1.64e+03    -  3.23e-01 2.90e-01h  1
iter    objective    inf_pr   inf_du lg(mu)  ||d||  lg(rg) alpha_du alpha_pr  ls
 260 -1.3992966e-01 3.06e+01 5.25e+01  -9.0 1.69e+03    -  4.57e-02 7.09e-02h  1
 261 -1.3993357e-01 2.82e+01 1.51e+02  -9.0 1.70e+03    -  2.18e-01 9.46e-02h  1
 262 -1.3995125e-01 2.55e+01 5.30e+04  -9.0 1.62e+03    -  4.76e-03 3.95e-01h  1
 263 -1.3995195e-01 2.53e+01 5.26e+04  -9.0 1.72e+03    -  4.28e-01 8.27e-03h  1
 264 -1.3995464e-01 2.44e+01 5.07e+04  -9.0 3.00e+03    -  2.00e-02 3.60e-02h  1
 265 -1.3995575e-01 2.37e+01 4.91e+04  -9.0 5.49e+03    -  5.34e-03 3.13e-02h  1
 266 -1.3995736e-01 2.23e+01 4.62e+04  -9.0 8.36e+02    -  3.38e-02 5.96e-02h  1
 267 -1.3996385e-01 1.74e+01 3.58e+04  -9.0 2.56e+02    -  1.11e-01 2.23e-01h  1
 268 -1.3998252e-01 7.58e+00 1.43e+04  -9.0 2.70e+02    -  6.61e-02 6.00e-01h  1
 269 -1.4002290e-01 1.68e+00 6.07e+02  -9.0 2.56e+02    -  6.46e-01 1.00e+00h  1
iter    objective    inf_pr   inf_du lg(mu)  ||d||  lg(rg) alpha_du alpha_pr  ls
 270 -1.4003599e-01 1.25e+00 5.82e+02  -9.0 2.77e+02    -  3.27e-01 1.81e-01h  1
 271 -1.4005731e-01 1.08e+00 3.30e+03  -9.0 3.25e+02    -  4.81e-01 2.35e-01h  1
 272r-1.4005731e-01 1.08e+00 1.00e+03  -0.1 0.00e+00    -  0.00e+00 1.12e-08R  2
 273r-1.4005593e-01 1.08e+00 7.68e+03  -0.1 4.81e+05    -  7.87e-09 3.79e-09f  1
 274 -1.4005594e-01 1.08e+00 9.86e+03  -9.0 5.09e+01    -  1.09e-06 4.15e-03h  1
 275 -1.4005397e-01 1.07e+00 1.13e+04  -9.0 7.59e+02    -  2.99e-05 8.33e-03h  1
 276 -1.4003546e-01 9.40e-01 4.98e+05  -9.0 1.46e+02    -  9.20e-05 1.30e-01h  1
 277 -1.4003096e-01 8.90e-01 4.85e+05  -9.0 9.79e+01    -  3.00e-02 5.32e-02h  1
 278 -1.3997232e-01 2.81e-01 2.28e+06  -9.0 1.00e+02    -  1.14e-01 6.87e-01h  1
 279 -1.3994632e-01 1.72e-01 1.59e+07  -9.0 1.19e+02    -  1.56e-01 5.98e-01h  1
iter    objective    inf_pr   inf_du lg(mu)  ||d||  lg(rg) alpha_du alpha_pr  ls
 280 -1.3994666e-01 1.63e-01 1.52e+07  -9.0 1.79e+01    -  7.17e-01 4.87e-02h  1
 281 -1.3989327e-01 1.60e-01 3.80e+07  -9.0 8.74e+01    -  8.47e-04 9.80e-01h  1
 282r-1.3989327e-01 1.60e-01 9.99e+02  -1.1 0.00e+00  -5.2 0.00e+00 4.87e-07R  2
 283r-1.3989425e-01 1.60e-01 9.99e+02  -1.1 2.70e+04    -  1.23e-07 4.50e-08f  1
 284 -1.3989420e-01 1.45e-01 4.07e+02  -9.0 8.87e+00    -  4.16e-03 9.37e-02h  1
 285 -1.3989296e-01 1.35e-01 3.82e+02  -9.0 7.46e+00    -  9.42e-02 7.29e-02h  1
 286 -1.3989252e-01 1.26e-01 3.58e+02  -9.0 8.12e+00    -  2.00e-01 6.27e-02h  1
 287 -1.3988827e-01 7.01e-02 1.99e+02  -9.0 4.66e+00    -  3.00e-01 4.45e-01h  1
 288 -1.3988710e-01 5.26e-02 1.49e+02  -9.0 2.67e+00    -  7.01e-01 2.50e-01h  3
 289 -1.3988672e-01 4.60e-02 1.30e+02  -9.0 1.97e+00    -  8.28e-01 1.25e-01h  4
iter    objective    inf_pr   inf_du lg(mu)  ||d||  lg(rg) alpha_du alpha_pr  ls
 290 -1.3988663e-01 3.45e-02 9.77e+01  -9.0 3.23e+00    -  9.00e-01 2.50e-01h  3
 291 -1.3988657e-01 3.25e-02 9.21e+01  -9.0 3.26e-01  -5.7 9.63e-01 5.80e-02h  5
 292 -1.3988800e-01 1.07e-04 3.68e+00  -9.0 9.66e-01  -6.1 8.06e-01 1.00e+00h  1
 293 -1.3993854e-01 1.96e-03 3.41e+00  -9.0 1.64e+01  -5.7 1.42e-02 7.81e-02h  1
 294 -1.3994042e-01 1.93e-03 3.36e+00  -9.0 2.97e+00  -5.3 9.91e-02 1.60e-02f  1
 295 -1.3994041e-01 1.92e-03 3.34e+00  -9.0 5.10e-01  -5.8 1.87e-01 4.14e-03h  1
 296 -1.3994118e-01 1.68e-03 2.91e+00  -9.0 1.09e+00  -6.2 8.99e-01 1.29e-01f  1
 297 -1.3995070e-01 1.40e-03 1.93e+00  -9.0 2.24e+00  -6.7 8.86e-01 8.47e-01f  1
 298 -1.3996117e-01 4.03e-03 2.94e-01  -9.0 5.03e+00  -7.2 7.52e-01 9.82e-01f  1
 299 -1.3996888e-01 9.68e-03 6.03e+03  -9.0 2.01e+01  -7.7 5.52e-04 1.00e+00f  1
iter    objective    inf_pr   inf_du lg(mu)  ||d||  lg(rg) alpha_du alpha_pr  ls
 300 -1.3999367e-01 8.14e-02 2.97e+03  -9.0 1.12e+02  -8.2 3.24e-01 5.07e-01h  1
 301 -1.4002173e-01 2.10e-02 2.12e+00  -9.0 2.95e+01  -7.7 9.97e-01 1.00e+00f  1
 302 -1.4002865e-01 2.16e-02 2.05e+00  -9.0 2.31e+02  -8.2 3.85e-02 3.17e-02h  1
 303 -1.4006202e-01 4.78e-02 4.40e-01  -9.0 5.44e+01  -7.8 9.14e-01 7.76e-01h  1
 304 -1.4006862e-01 4.82e-02 1.50e+00  -9.0 4.59e+02  -8.3 2.61e-01 1.41e-02h  1
 305 -1.4007249e-01 3.63e-02 8.16e-01  -9.0 9.02e+01  -8.7 3.92e-01 2.49e-01h  1
 306 -1.4008979e-01 3.15e-01 5.51e-01  -9.0 3.12e+02  -9.2 1.00e+00 3.83e-01f  1
 307 -1.4010697e-01 5.43e-01 1.02e+00  -9.0 1.26e+03  -9.7 5.96e-01 8.59e-02h  1
 308 -1.4011605e-01 3.33e-01 2.39e-01  -9.0 2.07e+02    -  9.07e-01 5.47e-01h  1
 309 -1.4012136e-01 3.23e-01 8.13e-01  -9.0 1.21e+02 -10.2 6.61e-01 1.00e+00h  1
iter    objective    inf_pr   inf_du lg(mu)  ||d||  lg(rg) alpha_du alpha_pr  ls
 310 -1.4010652e-01 2.75e-01 1.23e+01  -9.0 1.61e+02    -  1.15e-02 6.92e-01H  1
 311 -1.4011374e-01 7.63e-02 8.92e-02  -9.0 1.46e+02    -  1.00e+00 1.00e+00H  1
 312 -1.4011570e-01 4.74e-02 5.87e-03  -9.0 4.63e+01    -  7.81e-01 1.00e+00h  1
 313 -1.4011444e-01 3.08e-04 8.31e-06  -9.0 3.70e+00    -  1.00e+00 1.00e+00h  1
 314 -1.4011445e-01 9.19e-08 1.50e-09  -9.0 6.50e-02    -  1.00e+00 1.00e+00h  1
 315 -1.4011445e-01 3.05e-10 4.49e-14  -9.0 5.47e-06    -  1.00e+00 1.00e+00h  1

Number of Iterations....: 315

                                   (scaled)                 (unscaled)
Objective...............:  -1.4011444980046200e-01   -1.4011444980046200e-01
Dual infeasibility......:   4.4936276921703211e-14    4.4936276921703211e-14
Constraint violation....:   3.0548435113984806e-10    3.0548435113984806e-10
Complementarity.........:   9.0909091449599467e-10    9.0909091449599467e-10
Overall NLP error.......:   9.0909091449599467e-10    9.0909091449599467e-10


Number of objective function evaluations             = 426
Number of objective gradient evaluations             = 316
Number of equality constraint evaluations            = 427
Number of inequality constraint evaluations          = 427
Number of equality constraint Jacobian evaluations   = 321
Number of inequality constraint Jacobian evaluations = 321
Number of Lagrangian Hessian evaluations             = 315
Total CPU secs in IPOPT (w/o function evaluations)   =    138.564
Total CPU secs in NLP function evaluations           =      4.853

EXIT: Optimal Solution Found.
